p min 56 107
n 1 4
n 49 -5
n 50 1
a 1 2 0 1 0
a 1 6 0 1 0
a 1 14 0 1 0
a 1 17 0 1 0
a 2 3 0 5 0
a 2 18 0 5 396811
a 2 27 0 5 -100
a 2 51 0 1 0
a 3 4 0 5 0
a 3 19 0 5 396613
a 3 28 0 5 -100
a 3 51 0 1 42892
a 4 5 0 5 0
a 4 29 0 5 -100
a 4 52 0 1 0
a 5 6 0 5 0
a 5 22 0 5 395227
a 5 30 0 5 -100
a 5 52 0 1 43851
a 6 7 0 5 0
a 6 23 0 5 395029
a 6 31 0 5 -100
a 7 8 0 5 0
a 7 35 0 5 -100
a 8 9 0 5 0
a 8 26 0 5 391098
a 8 42 0 5 -100
a 9 10 0 5 0
a 9 44 0 5 -100
a 10 11 0 5 0
a 10 46 0 5 -100
a 10 56 0 1 0
a 11 12 0 5 0
a 11 47 0 5 -100
a 11 56 0 1 50355
a 12 13 0 5 0
a 12 48 0 5 -100
a 12 56 0 1 122754
a 13 49 0 5 -100
a 14 7 0 5 396811
a 14 15 0 5 0
a 14 27 0 5 -100
a 15 16 0 5 0
a 15 32 0 5 -100
a 15 53 0 1 0
a 16 8 0 5 394634
a 16 17 0 5 0
a 16 33 0 5 -100
a 16 53 0 1 42914
a 17 18 0 5 0
a 17 34 0 5 -100
a 18 19 0 5 0
a 18 35 0 5 -100
a 18 54 0 1 0
a 19 9 0 5 393452
a 19 20 0 5 0
a 19 36 0 5 -100
a 19 54 0 1 48917
a 20 21 0 5 0
a 20 37 0 5 -100
a 20 54 0 1 119907
a 21 22 0 5 0
a 21 38 0 5 -100
a 21 54 0 1 166888
a 22 23 0 5 0
a 22 39 0 5 -100
a 22 55 0 1 0
a 23 24 0 5 0
a 23 40 0 5 -100
a 23 55 0 1 46112
a 24 25 0 5 0
a 24 41 0 5 -100
a 24 55 0 1 114353
a 25 26 0 5 0
a 25 43 0 5 -100
a 26 10 0 5 372950
a 26 45 0 5 -100
a 27 28 0 5 -100
a 28 29 0 5 -100
a 29 30 0 5 -100
a 30 31 0 5 -100
a 31 32 0 5 -100
a 32 33 0 5 -100
a 33 34 0 5 -100
a 34 35 0 5 -100
a 35 36 0 5 -100
a 36 37 0 5 -100
a 37 38 0 5 -100
a 38 39 0 5 -100
a 39 40 0 5 -100
a 40 41 0 5 -100
a 41 42 0 5 -100
a 42 43 0 5 -100
a 43 44 0 5 -100
a 44 45 0 5 -100
a 45 46 0 5 -100
a 46 47 0 5 -100
a 47 48 0 5 -100
a 48 49 0 5 -100
a 50 6 0 1 0
a 50 7 0 1 0
a 51 23 0 1 -94234
a 52 8 0 1 -99701
a 53 25 0 1 -79625
a 54 9 0 1 -168584
a 55 26 0 1 -148150
a 56 13 0 1 -125226
